NAME          
ROWS
 N  OBJ
 L  c1
COLUMNS
    MARKER    'MARKER'                 'INTORG'
    x[1]      c1        861
    x[1]      OBJ       -724
    x[2]      c1        798
    x[2]      OBJ       -603
    x[3]      c1        292
    x[3]      OBJ       -449
    x[4]      c1        628
    x[4]      OBJ       -697
    x[5]      c1        706
    x[5]      OBJ       -883
    x[6]      c1        343
    x[6]      OBJ       -676
    x[7]      c1        159
    x[7]      OBJ       -832
    x[8]      c1        14
    x[8]      OBJ       -964
    x[9]      c1        11
    x[9]      OBJ       -544
    x[10]     c1        910
    x[10]     OBJ       -242
    x[11]     c1        734
    x[11]     OBJ       -966
    x[12]     c1        782
    x[12]     OBJ       -921
    x[13]     c1        261
    x[13]     OBJ       -38
    x[14]     c1        859
    x[14]     OBJ       -692
    x[15]     c1        160
    x[15]     OBJ       -890
    x[16]     c1        86
    x[16]     OBJ       -232
    x[17]     c1        388
    x[17]     OBJ       -501
    x[18]     c1        243
    x[18]     OBJ       -69
    x[19]     c1        649
    x[19]     OBJ       -606
    x[20]     c1        740
    x[20]     OBJ       -44
    x[21]     c1        212
    x[21]     OBJ       -991
    x[22]     c1        792
    x[22]     OBJ       -426
    x[23]     c1        103
    x[23]     OBJ       -459
    x[24]     c1        427
    x[24]     OBJ       -938
    x[25]     c1        957
    x[25]     OBJ       -666
    x[26]     c1        140
    x[26]     OBJ       -993
    x[27]     c1        269
    x[27]     OBJ       -63
    x[28]     c1        175
    x[28]     OBJ       -135
    x[29]     c1        139
    x[29]     OBJ       -933
    x[30]     c1        386
    x[30]     OBJ       -50
RHS
    rhs       c1        6612
RANGES
BOUNDS
 LO bounds    x[1]      0
 PL bounds    x[1]
 LO bounds    x[2]      0
 PL bounds    x[2]
 LO bounds    x[3]      0
 PL bounds    x[3]
 LO bounds    x[4]      0
 PL bounds    x[4]
 LO bounds    x[5]      0
 PL bounds    x[5]
 LO bounds    x[6]      0
 PL bounds    x[6]
 LO bounds    x[7]      0
 PL bounds    x[7]
 LO bounds    x[8]      0
 PL bounds    x[8]
 LO bounds    x[9]      0
 PL bounds    x[9]
 LO bounds    x[10]     0
 PL bounds    x[10]
 LO bounds    x[11]     0
 PL bounds    x[11]
 LO bounds    x[12]     0
 PL bounds    x[12]
 LO bounds    x[13]     0
 PL bounds    x[13]
 LO bounds    x[14]     0
 PL bounds    x[14]
 LO bounds    x[15]     0
 PL bounds    x[15]
 LO bounds    x[16]     0
 PL bounds    x[16]
 LO bounds    x[17]     0
 PL bounds    x[17]
 LO bounds    x[18]     0
 PL bounds    x[18]
 LO bounds    x[19]     0
 PL bounds    x[19]
 LO bounds    x[20]     0
 PL bounds    x[20]
 LO bounds    x[21]     0
 PL bounds    x[21]
 LO bounds    x[22]     0
 PL bounds    x[22]
 LO bounds    x[23]     0
 PL bounds    x[23]
 LO bounds    x[24]     0
 PL bounds    x[24]
 LO bounds    x[25]     0
 PL bounds    x[25]
 LO bounds    x[26]     0
 PL bounds    x[26]
 LO bounds    x[27]     0
 PL bounds    x[27]
 LO bounds    x[28]     0
 PL bounds    x[28]
 LO bounds    x[29]     0
 PL bounds    x[29]
 LO bounds    x[30]     0
 PL bounds    x[30]
ENDATA
